SAT
-1 -100 -99 -98 -97 -96 -95 6 16 94 -73 -57 -18 -66 40 93 -46 26 41 69 -88 82 -20 -7 89 -70 -8 75 -74 -68 -71 86 83 65 85 91 51 11 -13 24 50 2 80 -67 48 -29 -44 -77 -55 -5 3 -28 25 12 54 -21 -49 -9 31 -19 -87 -4 -17 43 -63 -37 -76 -39 -23 78 -53 -32 -36 38 33 42 47 -35 52 -81 30 -45 64 -92 -14 56 -60 15 72 -27 59 61 34 -90 -58 -22 -84 62 -79 10 0
